\ENCODING=ISO-8859-1
\Problem name: Config1

Maximize
 obj1: 6 Tomates#0 + 12 Pimientos#1 + 10 _Espinacas#2
Subject To
 C1: 5 Tomates#0 + 8 Pimientos#1 + 13 _Espinacas#2 <= 4000
 C2: 12 Tomates#0 + 18 Pimientos#1 + 14 _Espinacas#2 <= 6000
 C3: Tomates#0 + Pimientos#1 + _Espinacas#2 <= 600
End
